single_objective/SL-DABL/OP/problems/op/OPLib-master/instances/gen1/pr124-gen1-50.oplib
NAME : pr124
COMMENT : 124-city problem (Padberg/Rinaldi)
TYPE : OP
DIMENSION : 124
COST_LIMIT : 29515
EDGE_WEIGHT_TYPE : EUC_2D
NODE_COORD_SECTION
1 4475 8657
2 4475 8969
3 4475 9407
4 4475 9719
5 5450 10475
6 5475 9750
7 5475 8650
8 4575 8425
9 5425 3300
10 5425 3000
11 5425 2400
12 5425 2100
13 5425 1800
14 6000 2375
15 6375 2375
16 6000 3375
17 6375 3375
18 6475 4675
19 6475 4875
20 6475 5275
21 6475 5475
22 6100 6675
23 6350 6675
24 6350 7275
25 6100 7275
26 6550 7625
27 5775 8650
28 6075 8650
29 6375 8650
30 6375 9750
31 6075 9750
32 5775 9750
33 6975 9750
34 6675 9750
35 6675 8650
36 6875 8650
37 6850 7275
38 6600 7275
39 6600 6675
40 6850 6675
41 7100 5425
42 7100 5275
43 7100 5075
44 7100 4875
45 7100 4675
46 6925 3300
47 6925 3000
48 6925 2700
49 6925 2400
50 6925 2100
51 6925 1800
52 7700 3725
53 7850 3700
54 7700 4725
55 7750 7475
56 8125 7525
57 8500 7475
58 8500 8225
59 7600 9025
60 8350 9025
61 7975 9075
62 8350 9775
63 9375 11225
64 9531 11225
65 9475 10275
66 9275 10050
67 10375 9525
68 9687 11225
69 9843 11225
70 9999 11225
71 10155 11225
72 10311 11225
73 10467 11225
74 10623 11225
75 10779 11225
76 10935 11225
77 11091 11225
78 11247 11225
79 11403 11225
80 11559 11225
81 11175 9800
82 11275 9475
83 10650 9400
84 11275 9175
85 11125 5350
86 11025 4750
87 11000 4600
88 11000 3600
89 11650 3350
90 11725 4825
91 12500 5950
92 11715 11225
93 11871 11225
94 12027 11225
95 12183 11225
96 12339 11225
97 12495 11225
98 12651 11225
99 12807 11225
100 12963 11225
101 13325 6100
102 13100 4625
103 12825 3800
104 12850 2425
105 13585 1975
106 13585 2131
107 13585 2287
108 13585 2443
109 13585 2599
110 13585 2755
111 13585 2911
112 13585 3067
113 13585 3223
114 13585 3379
115 13585 9615
116 13585 9771
117 13585 9927
118 13585 10083
119 13585 10239
120 13585 10395
121 13585 10551
122 13585 10707
123 13585 10863
124 13585 11019
NODE_SCORE_SECTION
1 1
2 1
3 1
4 1
5 1
6 1
7 1
8 1
9 1
10 1
11 1
12 1
13 1
14 1
15 1
16 1
17 1
18 1
19 1
20 1
21 1
22 1
23 1
24 1
25 1
26 1
27 1
28 1
29 1
30 1
31 1
32 1
33 1
34 1
35 1
36 1
37 1
38 1
39 1
40 1
41 1
42 1
43 1
44 1
45 1
46 1
47 1
48 1
49 1
50 1
51 1
52 1
53 1
54 1
55 1
56 1
57 1
58 1
59 1
60 1
61 1
62 1
63 1
64 1
65 1
66 1
67 1
68 1
69 1
70 1
71 1
72 1
73 1
74 1
75 1
76 1
77 1
78 1
79 1
80 1
81 1
82 1
83 1
84 1
85 1
86 1
87 1
88 1
89 1
90 1
91 1
92 1
93 1
94 1
95 1
96 1
97 1
98 1
99 1
100 1
101 1
102 1
103 1
104 1
105 1
106 1
107 1
108 1
109 1
110 1
111 1
112 1
113 1
114 1
115 1
116 1
117 1
118 1
119 1
120 1
121 1
122 1
123 1
124 1
DEPOT_SECTION
1
-1
EOF
