single_objective/SL-DABL/OP/problems/op/OPLib-master/solutions/ea4op/gen1/pr124-gen1-50.sol
NAME : pr124
TYPE : OP
DIMENSION : 124
COST_LIMIT : 29515
ROUTE_NODES : 75
ROUTE_SCORE : 75
ROUTE_COST : 29017
NODE_SEQUENCE_SECTION
1
2
3
4
6
32
31
30
34
33
59
61
60
62
66
65
63
64
68
69
70
71
72
73
74
75
76
77
78
79
80
92
93
94
95
96
97
98
99
100
124
123
122
121
120
119
118
117
116
115
84
82
81
83
67
58
57
56
55
37
40
39
23
22
25
24
38
26
36
35
29
28
27
7
8
-1
DEPOT_SECTION
1
-1
EOF
